17	4
57	48	47	47	
0	0	0	0	0	3	2	3	4	
5	10	4	6	3	1	14	
5	2	4	4	10	2	17	17	
1	6	4	7	4	3	5	15	17	
4	5	4	9	8	3	6	7	11	
150	7	1	9	10	1	9	
75	5	10	5	9	3	8	10	12	
100	1	3	7	2	1	17	
100	7	5	6	9	1	17	
75	2	4	2	2	2	17	17	
200	7	7	10	8	2	17	17	
75	3	8	5	6	3	13	16	17	
3	1	7	5	4	2	17	17	
4	2	3	5	2	1	15	
9	10	3	3	2	2	17	17	
8	10	10	2	10	2	17	17	
0	0	0	0	0	0	
